SCIP Status        : solving was interrupted [time limit reached]
Total Time         :    3600.01
  solving          :    3600.00
  presolving       :       0.50 (included in solving)
  reading          :       0.01
  copying          :       4.30 (54 #copies) (minimal 0.00, maximal 0.23, average 0.08)
Original Problem   :
  Problem name     : bbbenchmark/g05_100.9.cut
  Variables        : 101 (100 binary, 0 integer, 0 implicit integer, 1 continuous)
  Constraints      : 1 initial, 1 maximal
  Objective        : minimize, 1 non-zeros (abs.min = 1, abs.max = 1)
Presolved Problem  :
  Problem name     : t_bbbenchmark/g05_100.9.cut
  Variables        : 1801 (100 binary, 0 integer, 1685 implicit integer, 16 continuous)
  Constraints      : 1731 initial, 11760 maximal
  Objective        : minimize, 1 non-zeros (abs.min = 1, abs.max = 1)
  Nonzeros         : 8511 constraint, 202 clique table
Presolvers         :   ExecTime  SetupTime  Calls  FixedVars   AggrVars   ChgTypes  ChgBounds   AddHoles    DelCons    AddCons   ChgSides   ChgCoefs
  boundshift       :       0.00       0.00      0          0          0          0          0          0          0          0          0          0
  convertinttobin  :       0.00       0.00      0          0          0          0          0          0          0          0          0          0
  domcol           :       0.00       0.00      1          0          0          0          0          0          0          0          0          0
  dualagg          :       0.00       0.00      0          0          0          0          0          0          0          0          0          0
  dualcomp         :       0.00       0.00      1          0          0          0          0          0          0          0          0          0
  dualinfer        :       0.00       0.00      0          0          0          0          0          0          0          0          0          0
  dualsparsify     :       0.00       0.00      1          0          0          0          0          0          0          0          0          0
  gateextraction   :       0.00       0.00      0          0          0          0          0          0          0          0          0          0
  implics          :       0.00       0.00      2          0          0          0          0          0          0          0          0          0
  inttobinary      :       0.00       0.00      0          0          0          0          0          0          0          0          0          0
  qpkktref         :       0.00       0.00      0          0          0          0          0          0          0          0          0          0
  redvub           :       0.00       0.00      0          0          0          0          0          0          0          0          0          0
  sparsify         :       0.00       0.00      1          0          0          0          0          0          0          0          0          0
  stuffing         :       0.00       0.00      0          0          0          0          0          0          0          0          0          0
  trivial          :       0.00       0.00      4          0          0          0          0          0          0          0          0          0
  tworowbnd        :       0.00       0.00      0          0          0          0          0          0          0          0          0          0
  dualfix          :       0.00       0.00      4          0          0          0          0          0          0          0          0          0
  genvbounds       :       0.00       0.00      0          0          0          0          0          0          0          0          0          0
  probing          :       0.30       0.00      1          0          0          0          0          0          0          0          0          0
  pseudoobj        :       0.00       0.00      1          0          0          0          1          0          0          0          0          0
  symmetry         :       0.00       0.00      0          0          0          0          0          0          0          0          0          0
  vbounds          :       0.00       0.00      1          0          0          0          0          0          0          0          0          0
  varbound         :       0.00       0.00      2          0          0          0          0          0          0          0          0          0
  and              :       0.00       0.01      2          0          0          0          0          0          0          0          0          0
  linear           :       0.00       0.00      2          0          0          0          0          0          0          0          0          0
  logicor          :       0.00       0.00      0          0          0          0          0          0          0          0          0          0
  bounddisjunction :       0.00       0.00      0          0          0          0          0          0          0          0          0          0
  nonlinear        :       0.19       0.01      5          0          0          0          1          0          0       1730          0          0
  benders          :       0.00       0.00      0          0          0          0          0          0          0          0          0          0
  components       :       0.00       0.00      1          0          0          0          0          0          0          0          0          0
  root node        :          -          -      -          0          -          -         12          -          -          -          -          -
Constraints        :     Number  MaxNumber  #Separate #Propagate    #EnfoLP    #EnfoRelax  #EnfoPS    #Check   #ResProp    Cutoffs    DomReds       Cuts    Applied      Conss   Children
  benderslp        :          0          0          0          0      83826          0          0      11937          0          0          0          0          0          0          0
  integral         :          0          0          0          0      83826          0          0      11937          0          0        485          0          0        299     166970
  varbound         :         15         15        108     710045          0          0          0        162          0          0      31249          0          0          0          0
  and              :       1685       1685     105098     805395          0          0          0        162     554239          0    1542450      11243      10396          0          0
  linear           :         31+        89        108     805457          0          0          0        160       2186         67     268359          0          0          0          0
  logicor          :          0+      8849          1      99623          0          0          0          0         73        534         43          0          0          0          0
  bounddisjunction :          0+      2452          0      49127          0          0          0          0          2         31          3          0          0          0          0
  benders          :          0          0          0          0          0          0          0         18          0          0          0          0          0          0          0
  countsols        :          0          0          0          0          0          0          0         18          0          0          0          0          0          0          0
  components       :          0          0          0          0          0          0          0          0          0          0          0          0          0          0          0
Constraint Timings :  TotalTime  SetupTime   Separate  Propagate     EnfoLP     EnfoPS     EnfoRelax   Check    ResProp    SB-Prop
  benderslp        :       0.16       0.00       0.00       0.00       0.14       0.00       0.00       0.02       0.00       0.00
  integral         :      48.30       0.00       0.00       0.00      48.27       0.00       0.00       0.03       0.00       0.00
  varbound         :       0.63       0.00       0.01       0.62       0.00       0.00       0.00       0.00       0.00       0.00
  and              :      99.28       0.01      63.84      34.70       0.00       0.00       0.00       0.02       0.35       0.36
  linear           :       3.96       0.00       0.04       3.88       0.00       0.00       0.00       0.00       0.00       0.04
  logicor          :      12.21       0.00       0.00      12.20       0.00       0.00       0.00       0.00       0.00       0.01
  bounddisjunction :       3.18       0.00       0.00       3.17       0.00       0.00       0.00       0.00       0.00       0.01
  benders          :       0.00       0.00       0.00       0.00       0.00       0.00       0.00       0.00       0.00       0.00
  countsols        :       0.00       0.00       0.00       0.00       0.00       0.00       0.00       0.00       0.00       0.00
  components       :       0.20       0.00       0.00       0.19       0.00       0.00       0.00       0.00       0.00       0.01
Propagators        : #Propagate   #ResProp    Cutoffs    DomReds
  dualfix          :          4          0          0          0
  genvbounds       :          0          0          0          0
  nlobbt           :          0          0          0          0
  obbt             :          0          0          0          0
  probing          :          0          0          0          0
  pseudoobj        :     329492          0          0         18
  redcost          :     200558          0          0      55867
  rootredcost      :          7          0          0          0
  symmetry         :          0          0          0          0
  vbounds          :     101118          0          0          0
Propagator Timings :  TotalTime  SetupTime   Presolve  Propagate    ResProp    SB-Prop
  dualfix          :       0.00       0.00       0.00       0.00       0.00       0.00
  genvbounds       :       0.45       0.00       0.00       0.44       0.00       0.01
  nlobbt           :       0.00       0.00       0.00       0.00       0.00       0.00
  obbt             :       0.00       0.00       0.00       0.00       0.00       0.00
  probing          :       0.30       0.00       0.30       0.00       0.00       0.00
  pseudoobj        :       0.73       0.00       0.00       0.73       0.00       0.00
  redcost          :      10.21       0.00       0.00      10.21       0.00       0.00
  rootredcost      :       0.49       0.00       0.00       0.47       0.00       0.02
  symmetry         :       0.27       0.00       0.00       0.27       0.00       0.00
  vbounds          :       0.46       0.00       0.00       0.46       0.00       0.00
Conflict Analysis  :       Time      Calls    Success    DomReds  Conflicts   Literals    Reconvs ReconvLits   Dualrays   Nonzeros   LP Iters   (pool size: [10000,10000])
  propagation      :       0.01        581        445          -        962       90.1          0        0.0          -          -          -
  infeasible LP    :       0.13         71         71          -       2429      144.9          0        0.0        508      139.0          0
  bound exceed. LP :      36.30       7568       7293          -     168317      112.6          0        0.0          0        0.0      92933
  strong branching :       0.00          0          0          -          0        0.0          0        0.0          -          -          0
  pseudo solution  :       0.00          0          0          -          0        0.0          0        0.0          -          -          -
  applied globally :       0.96          -          -          0      45851      115.8          -          -        508          -          -
  applied locally  :          -          -          -          0          0        0.0          -          -          0          -          -
Separators         :   ExecTime  SetupTime      Calls  RootCalls    Cutoffs    DomReds  FoundCuts ViaPoolAdd  DirectAdd    Applied ViaPoolApp  DirectApp      Conss
  cut pool         :       7.25          -      29447        133          -          -      39602    2606920          -          -          -          -          -    (maximal pool size:       4026)
  aggregation      :      19.45       0.00       5890        108          0          0        192        800          0        259        259          0          0
  > cmir           :          -          -          -          -          -          -          -        800          0        259        259          0          -
  > flowcover      :          -          -          -          -          -          -          -          0          0          0          0          0          -
  > knapsackcover  :          -          -          -          -          -          -          -          0          0          0          0          0          -
  cgmip            :       0.00       0.00          0          0          0          0          0          0          0          0          0          0          0
  clique           :       0.00       0.00        108        108          0          0          0          0          0          0          0          0          0
  closecuts        :       0.00       0.00          0          0          0          0          0          0          0          0          0          0          0
  convexproj       :       0.00       0.00          0          0          0          0          0          0          0          0          0          0          0
  disjunctive      :       0.00       0.00          0          0          0          0          0          0          0          0          0          0          0
  eccuts           :       0.00       0.00          0          0          0          0          0          0          0          0          0          0          0
  gauge            :       0.00       0.00          0          0          0          0          0          0          0          0          0          0          0
  gomory           :       0.00       0.00          0          0          0          0          0          0          0          0          0          0          0
  > gomorymi       :          -          -          -          -          -          -          -          0          0          0          0          0          -
  > strongcg       :          -          -          -          -          -          -          -          0          0          0          0          0          -
  impliedbounds    :       0.36       0.00       5890        108          0          0          3          0          0          0          0          0          0
  interlattice     :       0.35       0.00         85         85          0          0         85          0         85         85          0         85          0
  interminor       :       0.00       0.00          0          0          0          0          0          0          0          0          0          0          0
  intersub         :       0.00       0.00          0          0          0          0          0          0          0          0          0          0          0
  intobj           :       0.00       0.00          0          0          0          0          0          0          0          0          0          0          0
  mcf              :       0.00       0.00          1          1          0          0          0          0          0          0          0          0          0
  minor            :       0.01       0.00          0          0          0          0          0          0          0          0          0          0          0
  mixing           :       0.01       0.00       5890        108          0          0          0          0          0          0          0          0          0
  oddcycle         :       0.00       0.00          0          0          0          0          0          0          0          0          0          0          0
  rapidlearning    :       0.04       0.00          0          0          0          0          0          0          0          0          0          0          0
  rlt              :       0.00       0.00         10         10          0          0          0          0          0          0          0          0          0
  zerohalf         :      45.68       0.00       5223         20          0          0      39407    2606120          0     268701     268701          0          0
Cutselectors       :   ExecTime  SetupTime      Calls  RootCalls   Selected     Forced   Filtered  RootSelec   RootForc   RootFilt 
  hybrid           :       2.42       0.00      24318        108     279441          0    2338807        266          0         16
Pricers            :   ExecTime  SetupTime      Calls       Vars
  problem variables:       0.00          -          0          0
Branching Rules    :   ExecTime  SetupTime   BranchLP  BranchExt   BranchPS    Cutoffs    DomReds       Cuts      Conss   Children
  allfullstrong    :       0.00       0.00          0          0          0          0          0          0          0          0
  cloud            :       0.00       0.00          0          0          0          0          0          0          0          0
  distribution     :       0.00       0.00          0          0          0          0          0          0          0          0
  fullstrong       :       0.00       0.00          0          0          0          0          0          0          0          0
  inference        :       0.00       0.00          0          0          0          0          0          0          0          0
  leastinf         :       0.00       0.00          0          0          0          0          0          0          0          0
  lookahead        :       0.00       0.00          0          0          0          0          0          0          0          0
  mostinf          :       0.00       0.00          0          0          0          0          0          0          0          0
  multaggr         :       0.00       0.00          0          0          0          0          0          0          0          0
  nodereopt        :       0.00       0.00          0          0          0          0          0          0          0          0
  pscost           :       0.00       0.00          0          0          0          0          0          0          0          0
  random           :       0.00       0.00          0          0          0          0          0          0          0          0
  relpscost        :      47.86       0.00      83826          0          0          0        485          0        413     166970
  vanillafullstrong:       0.00       0.00          0          0          0          0          0          0          0          0
Primal Heuristics  :   ExecTime  SetupTime      Calls      Found       Best
  LP solutions     :       0.00          -          -          0          0
  relax solutions  :       0.00          -          -          0          0
  pseudo solutions :       0.00          -          -          0          0
  strong branching :       0.02          -          -          0          0
  actconsdiving    :       0.00       0.00          0          0          0
  adaptivediving   :       4.57       0.00         36          0          0
  alns             :       3.61       0.00         20          4          3
  bound            :       0.00       0.00          0          0          0
  clique           :       0.02       0.00          1          0          0
  coefdiving       :       0.00       0.00          0          0          0
  completesol      :       0.00       0.00          0          0          0
  conflictdiving   :     127.73       0.00       1160          0          0
  crossover        :       1.96       0.00          4          2          2
  dins             :       0.00       0.00          0          0          0
  distributiondivin:     107.41       0.00        560          0          0
  dps              :       0.00       0.00          0          0          0
  dualval          :       0.00       0.00          0          0          0
  farkasdiving     :       0.01       0.00          0          0          0
  feaspump         :       0.20       0.00          1          1          1
  fixandinfer      :       0.00       0.00          0          0          0
  fracdiving       :      79.40       0.00        657          0          0
  gins             :       0.15       0.00          0          0          0
  guideddiving     :      77.23       0.00        656          1          1
  indicator        :       0.16       0.00          0          0          0
  indicatordiving  :       0.00       0.00          0          0          0
  intdiving        :       0.00       0.00          0          0          0
  intshifting      :       0.64       0.00         93          0          0
  linesearchdiving :      71.20       0.00        656          0          0
  localbranching   :       0.00       0.00          0          0          0
  locks            :       0.01       0.00          1          0          0
  lpface           :       0.07       0.00          0          0          0
  mpec             :      87.59       0.00         11          0          0
  multistart       :       0.00       0.00          0          0          0
  mutation         :       0.00       0.00          0          0          0
  nlpdiving        :      20.54       0.00          3          0          0
  objpscostdiving  :      37.06       0.00         28          0          0
  octane           :       0.00       0.00          0          0          0
  ofins            :       0.07       0.00          0          0          0
  oneopt           :       0.04       0.00         11          0          0
  padm             :       0.00       0.00          0          0          0
  proximity        :       0.00       0.00          0          0          0
  pscostdiving     :      82.03       0.00        534          0          0
  randrounding     :       0.88       0.00      11916          0          0
  rens             :       0.00       0.00          0          0          0
  reoptsols        :       0.00       0.00          0          0          0
  repair           :       0.00       0.00          0          0          0
  rins             :       7.99       0.00         30          2          2
  rootsoldiving    :      43.93       0.00         37          0          0
  rounding         :       1.25       0.00       4540          0          0
  shiftandpropagate:       0.00       0.00          0          0          0
  shifting         :      42.88       0.00       9882          2          2
  simplerounding   :       0.15       0.00          0          0          0
  subnlp           :     126.36       0.00          0          0          0
  trivial          :       0.01       0.00          2          2          2
  trivialnegation  :       0.00       0.00          0          0          0
  trustregion      :       0.00       0.00          0          0          0
  trysol           :       0.09       0.00          0          0          0
  twoopt           :       0.00       0.00          0          0          0
  undercover       :       2.67       0.00          1          1          1
  vbounds          :       0.00       0.00          0          0          0
  veclendiving     :      77.00       0.00        656          0          0
  zeroobj          :       0.00       0.00          0          0          0
  zirounding       :       0.39       0.00       1000          0          0
  other solutions  :          -          -          -          0          -
Diving (single)    :      Calls      Nodes   LP Iters Backtracks  Conflicts   MinDepth   MaxDepth   AvgDepth  RoundSols  NLeafSols  MinSolDpt  MaxSolDpt  AvgSolDpt
  actconsdiving    :          0          -          -          -          -          -          -          -          -          -          -          -          -
  coefdiving       :          0          -          -          -          -          -          -          -          -          -          -          -          -
  conflictdiving   :       1160      54709    1312313        663      59373         58         86       71.0          0          -          -          -          -
  distributiondivin:        560      18176     753706        681      11534         47         78       58.6          0          -          -          -          -
  farkasdiving     :          0          -          -          -          -          -          -          -          -          -          -          -          -
  fracdiving       :        657      83293     681769        431       5193         57        691      152.9          0          -          -          -          -
  guideddiving     :        656      81112     674951        193       6121         60        453      150.0          0          1        159        159      159.0
  indicatordiving  :          0          -          -          -          -          -          -          -          -          -          -          -          -
  linesearchdiving :        656      29446     657438        246      24363         52        105       71.0          0          -          -          -          -
  pscostdiving     :        534      21047     754613        541      16056         46         78       64.9          0          -          -          -          -
  veclendiving     :        656      29655     704654        706      46614         54         87       70.5          0          -          -          -          -
Diving (adaptive)  :      Calls      Nodes   LP Iters Backtracks  Conflicts   MinDepth   MaxDepth   AvgDepth  RoundSols  NLeafSols  MinSolDpt  MaxSolDpt  AvgSolDpt
  actconsdiving    :          2         77       3111          2         30         55         56       55.5          0          -          -          -          -
  coefdiving       :         13        624      12492          7        653         62         82       72.1          0          -          -          -          -
  conflictdiving   :          0          -          -          -          -          -          -          -          -          -          -          -          -
  distributiondivin:          0          -          -          -          -          -          -          -          -          -          -          -          -
  farkasdiving     :          0          -          -          -          -          -          -          -          -          -          -          -          -
  fracdiving       :          1         63       1750          1         12         83         83       83.0          0          -          -          -          -
  guideddiving     :          1         58       1019          0          0         83         83       83.0          0          -          -          -          -
  indicatordiving  :          0          -          -          -          -          -          -          -          -          -          -          -          -
  linesearchdiving :         13        629      15995          6        561         61         92       71.2          0          -          -          -          -
  pscostdiving     :          2         81       2090          2         55         66         68       67.0          0          -          -          -          -
  veclendiving     :          4        219       5293          5        340         68         79       74.5          0          -          -          -          -
Neighborhoods      :      Calls  SetupTime  SolveTime SolveNodes       Sols       Best       Exp3  EpsGreedy        UCB TgtFixRate  Opt  Inf Node Stal  Sol  Usr Othr Actv
  rens             :          3       0.29       0.17         67          0          0    0.00000   -1.00000    0.45014      0.662    0    2    0    1    0    0    0    1
  rins             :          1       0.00       0.00          0          0          0    0.00000   -1.00000    0.06979      0.900    0    0    0    0    0    0    1    1
  mutation         :          2       0.06       0.03         34          0          0    0.00000   -1.00000    0.50618      0.550    0    2    0    0    0    0    0    1
  localbranching   :          4       0.39       0.20        316          2          2    0.00000   -1.00000    0.49639      0.822    1    1    0    2    0    0    0    1
  crossover        :          4       0.84       0.34         66          0          0    0.00000   -1.00000    0.46063      0.522    0    3    0    1    0    0    0    1
  proximity        :          2       0.05       0.33        191          2          1    0.00000   -1.00000    0.50638      0.850    1    0    0    1    0    0    0    1
  zeroobjective    :          2       0.35       0.08        105          0          0    0.00000   -1.00000    0.45358      0.850    0    1    0    1    0    0    0    1
  dins             :          2       0.28       0.03         55          0          0    0.00000   -1.00000    0.52257      0.750    0    1    0    1    0    0    0    1
  trustregion      :          0       0.00       0.00          0          0          0    0.00000   -1.00000    1.00000      0.900    0    0    0    0    0    0    0    0
Expressions        :   #IntEval  IntEvalTi   #RevProp  RevPropTi    DomReds    Cutoffs  #Estimate  EstimTime  Branching  #Simplify SimplifyTi Simplified
  pow              :          0       0.00          0       0.00          0          0          0       0.00          0          0       0.00          0
  prod             :       9900       0.01          0       0.00          0          0          0       0.00          0       6635       0.03          0
  sum              :          8       0.04          2       0.00          0          0          0       0.00          0          3       0.01          2
  var              :       6212       0.00          0       0.00          0          0          0       0.00          0      15273       0.00          0
  varidx           :          0       0.00          0       0.00          0          0          0       0.00          0          0       0.00          0
LP                 :       Time      Calls Iterations  Iter/call   Iter/sec  Time-0-It Calls-0-It    ItLimit
  primal LP        :     110.80      10932          0       0.00       0.00     110.72      10932
  dual LP          :    2090.72     149053   14780066     105.24    7069.37       3.37       8610
  lex dual LP      :       0.00          0          0       0.00          -
  barrier LP       :       0.00          0          0       0.00          -       0.00          0
  resolve instable :       0.00          0          0       0.00          -
  diving/probing LP:     576.14      20001    6016452     300.81   10442.69
  strong branching :      19.72       1657     207723     125.36   10533.62          -          -        246
    (at root node) :          -         23       6001     260.91          -
  conflict analysis:      14.68       9505      92933       9.78    6330.59
NLP relaxation     :
  solve time       :      19.45 (11 calls)
  convexity        :  nonconvex (46 linear rows, 0 convex ineq., 0 nonconvex ineq., 1685 nonlinear eq. or two-sided ineq.)
NLP Solvers        :  #Problems  ProblemTi    #Solves  SolveTime      #Iter  Time/Iter      #Okay #TimeLimit #IterLimit #LObjLimit #Interrupt  #NumError #EvalError  #OutOfMem #LicenseEr #OtherTerm   #GlobOpt    #LocOpt  #Feasible #LocInfeas #GlobInfea #Unbounded   #Unknown
  ipopt            :         12       6.82         31     107.66       1827       0.06         30          0          1          0          0          0          0          0          0          0          0         12          0         17          0          0          2
B&B Tree           :
  number of runs   :          1
  nodes            :     115799 (83485 internal, 32314 leaves)
  feasible leaves  :          0
  infeas. leaves   :         18
  objective leaves :      32295
  nodes (total)    :     115799 (83485 internal, 32314 leaves)
  nodes left       :      51136
  max depth        :         74
  max depth (total):         74
  backtracks       :      20984 (18.1%)
  early backtracks :          0 (0.0%)
  nodes exc. ref.  :          0 (0.0%)
  delayed cutoffs  :          0
  repropagations   :         95 (331 domain reductions, 0 cutoffs)
  avg switch length:       5.66
  switching time   :     141.16
Estim. Tree Size   :     231670
Estimation Tree    : 166971 nodes (115835 visited, 83485 internal, 32350 leaves, 51136 open), weight: 0.0000 completed 0.0881
Estimations        :      estim      value      trend resolution     smooth
  wbe              : 494336735588537          -          -          -          -
  tree-profile     :         -1          -          -          -          -
  gap              :     569585    0.66822    0.00004         32     585564
  tree-weight      :     231670    0.00000    0.00000         32     230505
  leaf-frequency   :     231670    0.27927   -0.00025         32     230505
  ssg              :     424223    0.86085   -0.00015         32     440547
  open-nodes       :     231670 51136.00000  237.09998         32     230505
Root Node          :
  First LP value   : -1.00000000000000e+00
  First LP Iters   :       1688 (9929.41 Iter/sec)
  First LP Time    :       0.17
  Final Dual Bound : -9.50972222222222e-01
  Final Root Iters :       3470
  Root LP Estimate : -3.83953812309684e-01
Solution           :
  Solutions found  :         15 (14 improvements)
  First Solution   : +1.00000000000000e+05   (in run 1, after 0 nodes, 0.04 seconds, depth 0, found by <trivial>)
  Gap First Sol.   :   infinite
  Gap Last Sol.    :      60.91 %
  Primal Bound     : -5.63232323232321e-01   (in run 1, after 4509 nodes, 181.52 seconds, depth 60, found by <crossover>)
  Dual Bound       : -8.42878687442226e-01
  Gap              :      49.65 %
Integrals          :      Total       Avg%
  primal-dual      :  123969.73      34.44
  primal-ref       :          -          - (not evaluated)
  dual-ref         :          -          - (not evaluated)
